88 30 51 9 35 34 
6 99 93 85 59 94 
27 69 1 71 65 66 20 32 70 
52 7 62 11 64 63 90 10 31 
21 72 75 23 67 39 56 4 26 
61 16 86 44 38 14 91 100 37 98 96 
18 8 84 17 5 60 89 
50 33 81 78 79 3 77 
2 57 87 97 95 13 
28 76 68 29 24 80 12 
92 42 15 43 41 22 74 58 
83 45 46 47 36 49 19 48 82 
53 40 73 55 25 54 
